0011100000011100
0011100000011100
0001100000011100
0001110000011100
0000111000011100
0000011000011100
0000011100011100
0000111110111000
0000110111110000
0011100011100000
0110000001100000
0110000001110000
0110000000111000
0110000000011100
0110000000001110
0000000000000000
